4 
5 
4 
5 
6 
4 
8 
6 
6 
1 
3 
8 
7 
8 
5 
4 
7 
4 
6 
4 
3 
4 
5 
7 
8 
6 
8 
6 
7 
5 
8 
6 
4 
1 
6 
3 
7 
4 
6 
3 
7 
5 
5 
6 
5 
7 
6 
6 
4 
3 
3 
3 
1 
6 
9 
5 
6 
8 
9 
5 
3 
3 
5 
1 
4 
6 
7 
7 
6 
6 
8 
3 
7 
6 
4 
4 
2 
5 
5 
11 
5 
7 
5 
2 
7 
8 
4 
5 
7 
4 
3 
1 
8 
4 
3 
4 
6 
4 
5 
1 
1 
5 
9 
3 
9 
8 
4 
5 
2 
2 
4 
3 
4 
5 
4 
9 
4 
1 
4 
7 
5 
3 
10 
5 
5 
6 
3 
7 
2 
3 
1 
7 
5 
3 
3 
4 
7 
5 
7 
11 
3 
5 
6 
6 
3 
3 
4 
2 
4 
8 
5 
3 
2 
6 
3 
7 
6 
7 
7 
8 
3 
2 
5 
2 
4 
5 
5 
3 
2 
9 
8 
1 
6 
7 
3 
5 
5 
5 
2 
1 
9 
9 
4 
7 
4 
7 
4 
3 
8 
7 
6 
11 
5 
11 
3 
6 
6 
5 
7 
8 
